rcpsp/heur_output_bi_constraints/Log=1/heurj120.txt
encoding rcpsp/j120.sm/j12035_5.sm nv: 5108796 nc: 10424281 enctime: 83.38
encoding rcpsp/j120.sm/j12035_5.sm nv: 904428 nc: 1842169 enctime: 11.35
c File: j12035_5.smnaivebi1.wcnf
c timeout
c final solution cost: 154
c CPU time: 70.954585
s UNKNOWN

c File: j12035_5.smbi1.wcnf
c timeout
c final solution cost: 83
c CPU time: 61.396283
s UNKNOWN


rcpsp/heur_output_bi_constraints/Log=1/heurj120.txt
encoding rcpsp/j120.sm/j12035_6.sm nv: 6304824 nc: 12783269 enctime: 100.43
encoding rcpsp/j120.sm/j12035_6.sm nv: 927180 nc: 1876601 enctime: 12.27
c File: j12035_6.smnaivebi1.wcnf
c timeout
c CPU time: 70.936000
s UNKNOWN

c File: j12035_6.smbi1.wcnf
c timeout
c CPU time: 61.125291
s UNKNOWN


rcpsp/heur_output_bi_constraints/Log=1/heurj120.txt
encoding rcpsp/j120.sm/j12035_7.sm nv: 6876210 nc: 13981880 enctime: 111.63
encoding rcpsp/j120.sm/j12035_7.sm nv: 1026300 nc: 2083130 enctime: 13.31
c File: j12035_7.smnaivebi1.wcnf
c timeout
c final solution cost: 617
c CPU time: 73.313056
s UNKNOWN

c File: j12035_7.smbi1.wcnf
c optimal
c final solution cost: 70
c CPU time: 14.154315
s OPTIMUM FOUND


rcpsp/heur_output_bi_constraints/Log=1/heurj120.txt
encoding rcpsp/j120.sm/j12035_8.sm nv: 6619536 nc: 13496935 enctime: 109.08
encoding rcpsp/j120.sm/j12035_8.sm nv: 1012512 nc: 2060414 enctime: 13.43
c File: j12035_8.smnaivebi1.wcnf
c timeout
c final solution cost: 79
c CPU time: 73.326557
s UNKNOWN

c File: j12035_8.smbi1.wcnf
c timeout
c final solution cost: 79
c CPU time: 61.504688
s UNKNOWN


rcpsp/heur_output_bi_constraints/Log=1/heurj120.txt
encoding rcpsp/j120.sm/j12035_9.sm nv: 6319500 nc: 12868131 enctime: 104.20
encoding rcpsp/j120.sm/j12035_9.sm nv: 1081975 nc: 2199443 enctime: 14.11
c File: j12035_9.smnaivebi1.wcnf
c timeout
c final solution cost: 78
c CPU time: 72.745811
s UNKNOWN

c File: j12035_9.smbi1.wcnf
c timeout
c final solution cost: 77
c CPU time: 61.690164
s UNKNOWN


rcpsp/heur_output_bi_constraints/Log=1/heurj120.txt
encoding rcpsp/j120.sm/j1203_5.sm nv: 752680 nc: 1717184 enctime: 20.88
encoding rcpsp/j120.sm/j1203_5.sm nv: 111600 nc: 251489 enctime: 1.75
c File: j1203_5.smnaivebi1.wcnf
c optimal
c final solution cost: 61
c CPU time: 9.255616
s OPTIMUM FOUND

c File: j1203_5.smbi1.wcnf
c optimal
c final solution cost: 61
c CPU time: 1.107277
s OPTIMUM FOUND


rcpsp/heur_output_bi_constraints/Log=1/heurj120.txt
encoding rcpsp/j120.sm/j12036_10.sm nv: 4233905 nc: 8786164 enctime: 77.81
encoding rcpsp/j120.sm/j12036_10.sm nv: 1904950 nc: 3950503 enctime: 25.56
c File: j12036_10.smnaivebi1.wcnf
c timeout
c final solution cost: 617
c CPU time: 70.461495
s UNKNOWN

c File: j12036_10.smbi1.wcnf
c timeout
c final solution cost: 231
c CPU time: 63.597875
s UNKNOWN


rcpsp/heur_output_bi_constraints/Log=1/heurj120.txt
encoding rcpsp/j120.sm/j12036_1.sm nv: 4214110 nc: 8738444 enctime: 77.41
encoding rcpsp/j120.sm/j12036_1.sm nv: 1838660 nc: 3810059 enctime: 25.09
c File: j12036_1.smnaivebi1.wcnf
c timeout
c final solution cost: 265
c CPU time: 70.484228
s UNKNOWN

c File: j12036_1.smbi1.wcnf
c timeout
c final solution cost: 229
c CPU time: 63.427566
s UNKNOWN


rcpsp/heur_output_bi_constraints/Log=1/heurj120.txt
encoding rcpsp/j120.sm/j12036_2.sm nv: 3745500 nc: 7779137 enctime: 68.94
encoding rcpsp/j120.sm/j12036_2.sm nv: 1628725 nc: 3380348 enctime: 22.29
c File: j12036_2.smnaivebi1.wcnf
c timeout
c final solution cost: 564
c CPU time: 69.217619
s UNKNOWN

c File: j12036_2.smbi1.wcnf
c timeout
c final solution cost: 252
c CPU time: 63.130173
s UNKNOWN


rcpsp/heur_output_bi_constraints/Log=1/heurj120.txt
encoding rcpsp/j120.sm/j12036_3.sm nv: 3814631 nc: 7918950 enctime: 70.25
encoding rcpsp/j120.sm/j12036_3.sm nv: 1829407 nc: 3795422 enctime: 27.07
c File: j12036_3.smnaivebi1.wcnf
c timeout
c final solution cost: 299
c CPU time: 69.421493
s UNKNOWN

c File: j12036_3.smbi1.wcnf
c timeout
c final solution cost: 241
c CPU time: 63.498457
s UNKNOWN


rcpsp/heur_output_bi_constraints/Log=1/heurj120.txt
encoding rcpsp/j120.sm/j12036_4.sm nv: 3405810 nc: 7081703 enctime: 62.06
encoding rcpsp/j120.sm/j12036_4.sm nv: 1750650 nc: 3638159 enctime: 25.79
c File: j12036_4.smnaivebi1.wcnf
c timeout
c final solution cost: 302
c CPU time: 68.510392
s UNKNOWN

c File: j12036_4.smbi1.wcnf
c timeout
c final solution cost: 259
c CPU time: 63.469141
s UNKNOWN


rcpsp/heur_output_bi_constraints/Log=1/heurj120.txt
encoding rcpsp/j120.sm/j12036_5.sm nv: 3607172 nc: 7496779 enctime: 66.64
encoding rcpsp/j120.sm/j12036_5.sm nv: 1767680 nc: 3671608 enctime: 23.81
c File: j12036_5.smnaivebi1.wcnf
c timeout
c final solution cost: 345
c CPU time: 69.025154
s UNKNOWN

c File: j12036_5.smbi1.wcnf
c timeout
c final solution cost: 253
c CPU time: 63.463219
s UNKNOWN


rcpsp/heur_output_bi_constraints/Log=1/heurj120.txt
encoding rcpsp/j120.sm/j12036_6.sm nv: 3753260 nc: 7800624 enctime: 69.46
encoding rcpsp/j120.sm/j12036_6.sm nv: 1879452 nc: 3903940 enctime: 28.05
c File: j12036_6.smnaivebi1.wcnf
c timeout
c final solution cost: 319
c CPU time: 69.217090
s UNKNOWN

c File: j12036_6.smbi1.wcnf
c timeout
c final solution cost: 247
c CPU time: 63.704737
s UNKNOWN


rcpsp/heur_output_bi_constraints/Log=1/heurj120.txt
encoding rcpsp/j120.sm/j12036_7.sm nv: 4600125 nc: 9532883 enctime: 82.83
encoding rcpsp/j120.sm/j12036_7.sm nv: 1735650 nc: 3593652 enctime: 23.49
c File: j12036_7.smnaivebi1.wcnf
c timeout
c final solution cost: 414
c CPU time: 71.305179
s UNKNOWN

c File: j12036_7.smbi1.wcnf
c timeout
c final solution cost: 222
c CPU time: 63.167598
s UNKNOWN


rcpsp/heur_output_bi_constraints/Log=1/heurj120.txt
encoding rcpsp/j120.sm/j12036_8.sm nv: 3404925 nc: 6993253 enctime: 58.77
encoding rcpsp/j120.sm/j12036_8.sm nv: 1374240 nc: 2820667 enctime: 18.29
c File: j12036_8.smnaivebi1.wcnf
c timeout
c final solution cost: 467
c CPU time: 67.567852
s UNKNOWN

c File: j12036_8.smbi1.wcnf
c timeout
c final solution cost: 190
c CPU time: 62.465035
s UNKNOWN


rcpsp/heur_output_bi_constraints/Log=1/heurj120.txt
encoding rcpsp/j120.sm/j12036_9.sm nv: 3343915 nc: 6928533 enctime: 61.20
encoding rcpsp/j120.sm/j12036_9.sm nv: 1511035 nc: 3128709 enctime: 22.78
c File: j12036_9.smnaivebi1.wcnf
c timeout
c final solution cost: 418
c CPU time: 68.318806
s UNKNOWN

c File: j12036_9.smbi1.wcnf
c timeout
c final solution cost: 232
c CPU time: 62.924570
s UNKNOWN


rcpsp/heur_output_bi_constraints/Log=1/heurj120.txt
encoding rcpsp/j120.sm/j1203_6.sm nv: 885221 nc: 2017085 enctime: 24.84
encoding rcpsp/j120.sm/j1203_6.sm nv: 114623 nc: 257711 enctime: 1.97
c File: j1203_6.smnaivebi1.wcnf
c timeout
c final solution cost: 50
c CPU time: 64.498568
s UNKNOWN

c File: j1203_6.smbi1.wcnf
c timeout
c final solution cost: 50
c CPU time: 60.214223
s UNKNOWN


rcpsp/heur_output_bi_constraints/Log=1/heurj120.txt
encoding rcpsp/j120.sm/j12037_10.sm nv: 6096000 nc: 12430493 enctime: 99.00
encoding rcpsp/j120.sm/j12037_10.sm nv: 1657350 nc: 3376579 enctime: 23.11
c File: j12037_10.smnaivebi1.wcnf
c timeout
c final solution cost: 158
c CPU time: 72.479656
s UNKNOWN

c File: j12037_10.smbi1.wcnf
c timeout
c final solution cost: 140
c CPU time: 62.651196
s UNKNOWN


rcpsp/heur_output_bi_constraints/Log=1/heurj120.txt
encoding rcpsp/j120.sm/j12037_1.sm nv: 5076866 nc: 10373105 enctime: 83.19
encoding rcpsp/j120.sm/j12037_1.sm nv: 1499042 nc: 3060209 enctime: 20.31
c File: j12037_1.smnaivebi1.wcnf
c timeout
c final solution cost: 177
c CPU time: 70.770066
s UNKNOWN

c File: j12037_1.smbi1.wcnf
c timeout
c final solution cost: 152
c CPU time: 62.474856
s UNKNOWN


rcpsp/heur_output_bi_constraints/Log=1/heurj120.txt
encoding rcpsp/j120.sm/j12037_2.sm nv: 5256160 nc: 10723580 enctime: 87.84
encoding rcpsp/j120.sm/j12037_2.sm nv: 1729000 nc: 3524828 enctime: 21.28
c File: j12037_2.smnaivebi1.wcnf
c timeout
c final solution cost: 386
c CPU time: 70.865021
s UNKNOWN

c File: j12037_2.smbi1.wcnf
c timeout
c final solution cost: 150
c CPU time: 62.782426
s UNKNOWN


rcpsp/heur_output_bi_constraints/Log=1/heurj120.txt
encoding rcpsp/j120.sm/j12037_3.sm nv: 5528295 nc: 11303982 enctime: 88.43
encoding rcpsp/j120.sm/j12037_3.sm nv: 1585635 nc: 3239262 enctime: 18.79
c File: j12037_3.smnaivebi1.wcnf
c timeout
c final solution cost: 254
c CPU time: 71.618595
s UNKNOWN

c File: j12037_3.smbi1.wcnf
c timeout
c final solution cost: 147
c CPU time: 62.503493
s UNKNOWN


rcpsp/heur_output_bi_constraints/Log=1/heurj120.txt
encoding rcpsp/j120.sm/j12037_4.sm nv: 5910840 nc: 12133463 enctime: 94.26
encoding rcpsp/j120.sm/j12037_4.sm nv: 1742940 nc: 3574418 enctime: 22.70
c File: j12037_4.smnaivebi1.wcnf
c timeout
c final solution cost: 200
c CPU time: 72.458586
s UNKNOWN

c File: j12037_4.smbi1.wcnf
c timeout
c final solution cost: 172
c CPU time: 62.773086
s UNKNOWN


rcpsp/heur_output_bi_constraints/Log=1/heurj120.txt
encoding rcpsp/j120.sm/j12037_5.sm nv: 4830462 nc: 9985213 enctime: 81.07
encoding rcpsp/j120.sm/j12037_5.sm nv: 1789060 nc: 3695111 enctime: 22.84
c File: j12037_5.smnaivebi1.wcnf
c timeout
c final solution cost: 627
c CPU time: 71.263346
s UNKNOWN

c File: j12037_5.smbi1.wcnf
c timeout
c final solution cost: 215
c CPU time: 63.030352
s UNKNOWN


rcpsp/heur_output_bi_constraints/Log=1/heurj120.txt
encoding rcpsp/j120.sm/j12037_6.sm nv: 5962288 nc: 12246997 enctime: 95.18
encoding rcpsp/j120.sm/j12037_6.sm nv: 1783662 nc: 3660205 enctime: 22.84
c File: j12037_6.smnaivebi1.wcnf
c timeout
c final solution cost: 219
c CPU time: 72.605286
s UNKNOWN

c File: j12037_6.smbi1.wcnf
c timeout
c final solution cost: 174
c CPU time: 62.842516
s UNKNOWN


rcpsp/heur_output_bi_constraints/Log=1/heurj120.txt
encoding rcpsp/j120.sm/j12037_7.sm nv: 5047605 nc: 10375663 enctime: 81.25
encoding rcpsp/j120.sm/j12037_7.sm nv: 1531635 nc: 3145207 enctime: 19.89
c File: j12037_7.smnaivebi1.wcnf
c timeout
c final solution cost: 188
c CPU time: 71.156405
s UNKNOWN

c File: j12037_7.smbi1.wcnf
c timeout
c final solution cost: 172
c CPU time: 62.511543
s UNKNOWN


rcpsp/heur_output_bi_constraints/Log=1/heurj120.txt
encoding rcpsp/j120.sm/j12037_8.sm nv: 4580712 nc: 9422046 enctime: 73.16
encoding rcpsp/j120.sm/j12037_8.sm nv: 1576387 nc: 3239571 enctime: 19.82
c File: j12037_8.smnaivebi1.wcnf
c timeout
c final solution cost: 518
c CPU time: 70.062284
s UNKNOWN

c File: j12037_8.smbi1.wcnf
c timeout
c final solution cost: 186
c CPU time: 62.604288
s UNKNOWN


rcpsp/heur_output_bi_constraints/Log=1/heurj120.txt
encoding rcpsp/j120.sm/j12037_9.sm nv: 5916950 nc: 12084439 enctime: 89.52
encoding rcpsp/j120.sm/j12037_9.sm nv: 1665849 nc: 3399173 enctime: 21.12
c File: j12037_9.smnaivebi1.wcnf
c timeout
c final solution cost: 213
c CPU time: 72.000364
s UNKNOWN

c File: j12037_9.smbi1.wcnf
c timeout
c final solution cost: 145
c CPU time: 62.568069
s UNKNOWN


rcpsp/heur_output_bi_constraints/Log=1/heurj120.txt
encoding rcpsp/j120.sm/j1203_7.sm nv: 828014 nc: 1881141 enctime: 21.04
encoding rcpsp/j120.sm/j1203_7.sm nv: 128832 nc: 289486 enctime: 1.89
c File: j1203_7.smnaivebi1.wcnf
c timeout
c final solution cost: 56
c CPU time: 63.982136
s UNKNOWN

c File: j1203_7.smbi1.wcnf
c timeout
c final solution cost: 56
c CPU time: 60.234709
s UNKNOWN


rcpsp/heur_output_bi_constraints/Log=1/heurj120.txt
encoding rcpsp/j120.sm/j12038_10.sm nv: 7759854 nc: 15821221 enctime: 118.30
encoding rcpsp/j120.sm/j12038_10.sm nv: 2030004 nc: 4135246 enctime: 23.15
c File: j12038_10.smnaivebi1.wcnf
c timeout
c final solution cost: 578
c CPU time: 74.751549
s UNKNOWN

c File: j12038_10.smbi1.wcnf
c timeout
c final solution cost: 142
c CPU time: 63.000240
s UNKNOWN


rcpsp/heur_output_bi_constraints/Log=1/heurj120.txt
encoding rcpsp/j120.sm/j12038_1.sm nv: 8078266 nc: 16387805 enctime: 116.53
encoding rcpsp/j120.sm/j12038_1.sm nv: 1583733 nc: 3209357 enctime: 18.32
c File: j12038_1.smnaivebi1.wcnf
c timeout
c final solution cost: 611
c CPU time: 74.376190
s UNKNOWN

c File: j12038_1.smbi1.wcnf
c timeout
c final solution cost: 107
c CPU time: 62.333510
s UNKNOWN


rcpsp/heur_output_bi_constraints/Log=1/heurj120.txt
encoding rcpsp/j120.sm/j12038_2.sm nv: 6829876 nc: 13909960 enctime: 101.77
encoding rcpsp/j120.sm/j12038_2.sm nv: 1585692 nc: 3226276 enctime: 18.19
c File: j12038_2.smnaivebi1.wcnf
c timeout
c final solution cost: 276
c CPU time: 72.899242
s UNKNOWN

c File: j12038_2.smbi1.wcnf
c timeout
c final solution cost: 128
c CPU time: 62.363719
s UNKNOWN


rcpsp/heur_output_bi_constraints/Log=1/heurj120.txt
encoding rcpsp/j120.sm/j12038_3.sm nv: 6736576 nc: 13778080 enctime: 104.30
encoding rcpsp/j120.sm/j12038_3.sm nv: 1789403 nc: 3656254 enctime: 20.37
c File: j12038_3.smnaivebi1.wcnf
c timeout
c final solution cost: 173
c CPU time: 73.551802
s UNKNOWN

c File: j12038_3.smbi1.wcnf
c timeout
c final solution cost: 154
c CPU time: 62.722018
s UNKNOWN


rcpsp/heur_output_bi_constraints/Log=1/heurj120.txt
encoding rcpsp/j120.sm/j12038_4.sm nv: 7093275 nc: 14465698 enctime: 106.21
encoding rcpsp/j120.sm/j12038_4.sm nv: 1837850 nc: 3744631 enctime: 23.77
c File: j12038_4.smnaivebi1.wcnf
c timeout
c final solution cost: 346
c CPU time: 74.204892
s UNKNOWN

c File: j12038_4.smbi1.wcnf
c timeout
c final solution cost: 139
c CPU time: 62.739303
s UNKNOWN


rcpsp/heur_output_bi_constraints/Log=1/heurj120.txt
encoding rcpsp/j120.sm/j12038_5.sm nv: 8279562 nc: 16828748 enctime: 120.73
encoding rcpsp/j120.sm/j12038_5.sm nv: 1677480 nc: 3405837 enctime: 19.74
c File: j12038_5.smnaivebi1.wcnf
c timeout
c final solution cost: 114
c CPU time: 75.106218
s UNKNOWN

c File: j12038_5.smbi1.wcnf
c timeout
c final solution cost: 115
c CPU time: 62.423118
s UNKNOWN


rcpsp/heur_output_bi_constraints/Log=1/heurj120.txt
encoding rcpsp/j120.sm/j12038_6.sm nv: 8122884 nc: 16539489 enctime: 117.17
encoding rcpsp/j120.sm/j12038_6.sm nv: 1801261 nc: 3663721 enctime: 20.22
c File: j12038_6.smnaivebi1.wcnf
c timeout
c final solution cost: 553
c CPU time: 74.906291
s UNKNOWN

c File: j12038_6.smbi1.wcnf
c timeout
c final solution cost: 128
c CPU time: 62.612511
s UNKNOWN


rcpsp/heur_output_bi_constraints/Log=1/heurj120.txt
encoding rcpsp/j120.sm/j12038_7.sm nv: 9164549 nc: 18568916 enctime: 127.88
encoding rcpsp/j120.sm/j12038_7.sm nv: 1881643 nc: 3808886 enctime: 21.05
c File: j12038_7.smnaivebi1.wcnf
c timeout
c final solution cost: 104
c CPU time: 76.083669
s UNKNOWN

c File: j12038_7.smbi1.wcnf
c timeout
c final solution cost: 98
c CPU time: 62.624475
s UNKNOWN


rcpsp/heur_output_bi_constraints/Log=1/heurj120.txt
encoding rcpsp/j120.sm/j12038_8.sm nv: 7008318 nc: 14271174 enctime: 100.73
encoding rcpsp/j120.sm/j12038_8.sm nv: 1610019 nc: 3275019 enctime: 17.78
c File: j12038_8.smnaivebi1.wcnf
c timeout
c final solution cost: 241
c CPU time: 73.128924
s UNKNOWN

c File: j12038_8.smbi1.wcnf
c timeout
c final solution cost: 125
c CPU time: 62.361828
s UNKNOWN


rcpsp/heur_output_bi_constraints/Log=1/heurj120.txt
encoding rcpsp/j120.sm/j12038_9.sm nv: 7821420 nc: 15970662 enctime: 114.86
encoding rcpsp/j120.sm/j12038_9.sm nv: 1752340 nc: 3574062 enctime: 19.42
c File: j12038_9.smnaivebi1.wcnf
c timeout
c final solution cost: 140
c CPU time: 74.433318
s UNKNOWN

c File: j12038_9.smbi1.wcnf
c timeout
c final solution cost: 133
c CPU time: 62.533677
s UNKNOWN


rcpsp/heur_output_bi_constraints/Log=1/heurj120.txt
encoding rcpsp/j120.sm/j1203_8.sm nv: 879630 nc: 2025822 enctime: 21.78
encoding rcpsp/j120.sm/j1203_8.sm nv: 112980 nc: 256542 enctime: 1.64
c File: j1203_8.smnaivebi1.wcnf
c timeout
c final solution cost: 61
c CPU time: 64.405146
s UNKNOWN

c File: j1203_8.smbi1.wcnf
c timeout
c final solution cost: 62
c CPU time: 60.192950
s UNKNOWN


rcpsp/heur_output_bi_constraints/Log=1/heurj120.txt
encoding rcpsp/j120.sm/j12039_10.sm nv: 6692734 nc: 13580811 enctime: 91.55
encoding rcpsp/j120.sm/j12039_10.sm nv: 1484848 nc: 3010014 enctime: 16.14
c File: j12039_10.smnaivebi1.wcnf
c timeout
c final solution cost: 144
c CPU time: 71.974573
s UNKNOWN

c File: j12039_10.smbi1.wcnf
c timeout
c final solution cost: 108
c CPU time: 62.114915
s UNKNOWN


